10  5
 0  6  1  3  2 10  4  7  3  9   6 161   5
 0  9  1  6  2  9  3  9  4  7   9 160   5
 3  4  1  3  2  9  0  9  4  3   3 151   5
 3  7  1  8  2 15  0  3  4  5   3 163  10
 4  9  3 11  2 15  0  4  1  9  12 151   5
 4  7  0  4  2 12  1 10  3  4  15 162   5
 3  9  4  3  2 14  1  7  0 11  13 149   5
 4  6  1  6  2  8  0  7  3  4  14 161   5
 3  3  0  6  2 10  4  4  1  6   7 154   5
 1  9  0  7  2 12  3 11  4  5   1 160   5
